(set-logic QF_S)
(set-option :parse-transducers true)
(set-option :produce-models true)
(define-fun-rec toLower ((x String) (y String)) Bool
   (or (and (= x "") (= y ""))
       (and (not (= x "")) (not (= y ""))
           (= (char.code (str.head y))
               (ite (and (<= 65 (char.code (str.head x)))
                       (<= (char.code (str.head x)) 90))
                   (+ (char.code (str.head x)) 32)
                   (char.code (str.head x))))
           (toLower (str.tail x) (str.tail y))))
)
(declare-fun r1[$i2] () String)
(declare-fun $r3 () String)
(declare-fun L56  () String)
(declare-fun L24  () String)
(declare-fun L5  () String)
(declare-fun L6  () String)
(declare-fun L22  () String)
(declare-fun L3  () String)
(declare-fun L1  () String)
(declare-fun L38  () String)
(declare-fun L0  () String)
(declare-fun L18  () String)
(assert (toLower "table"  L18 ))
(assert (toLower $r3  L0 ))
(assert (toLower "field"  L38 ))
(assert (toLower "database"  L1 ))
(assert (toLower "name"  L3 ))
(assert (toLower "length"  L22 ))
(assert (toLower r1[$i2]  L6 ))
(assert (toLower "description"  L5 ))
(assert (toLower "type"  L24 ))
(assert (toLower "option"  L56 ))

(assert (= L0 L1 ))
(assert (not (= L0 L3 )))
(assert (not (= L0 L5 )))
(assert (= L6 "html" ))
(assert (not (= L0 L3 )))
(assert (= L0 L5 ))
(assert (not (= L0 L5 )))
(assert (not (= L0 L5 )))
(assert (not (= L0 L3 )))
(assert (not (= L0 L18 )))
(assert (not (= L0 L3 )))
(assert (not (= L0 L22 )))
(assert (= L0 L24 ))
(assert (not (= L0 L3 )))
(assert (= L0 L5 ))
(assert (= L0 L24 ))
(assert (= L0 L3 ))
(assert (= L0 L3 ))
(assert (not (= L0 L3 )))
(assert (not (= L0 L38 )))
(assert (not (= L0 L5 )))
(assert (not (= L0 L5 )))
(assert (not (= L0 L5 )))
(assert (not (= L0 L3 )))
(assert (not (= L0 L22 )))
(assert (not (= L0 L22 )))
(assert (not (= L0 L3 )))
(assert (not (= L0 L5 )))
(assert (not (= L0 L56 )))
(assert (not (= L0 L5 )))
(assert (= L0 L5 ))
(assert (not (= L0 L56 )))
(assert (= L0 L5 ))
(assert (= L0 L56 ))
(assert (not (= L0 L3 )))
(assert (not (= L0 L5 )))
(assert (= L0 L3 ))
(assert (not (= L0 L24 )))
(assert (not (= L0 L5 )))
(assert (= L0 L56 ))
(assert (not (= L0 L3 )))
(assert (= L0 L3 ))
(assert (not (= L0 L3 )))
(assert (not (= L0 L3 )))
(assert (not (= L0 L24 )))
(assert (not (= L0 L24 )))
(assert (= L0 L56 ))
(assert (not (= L0 L22 )))
(assert (not (= L0 L24 )))
(assert (not (= L0 L3 )))
(assert (not (= L0 L5 )))
(assert (= L0 L18 ))
(assert (not (= L0 L3 )))
(assert (not (= L0 L5 )))
(assert (= L0 L38 ))
(assert (not (= L0 L5 )))
(assert (= L0 L22 ))
(assert (not (= L0 L22 )))
(assert (not (= L0 L24 )))
(assert (not (= L0 L3 )))
(assert (not (= L6 "sql" )))
(assert (= L0 L38 ))
(assert (not (= L0 L3 )))
(assert (not (= L0 L3 )))
(assert (not (= L0 L24 )))
(check-sat)
(get-model)
(exit)
